<instance format="XCSP3" type="COP">
  <variables>
    <array id="x" size="[30]"> 0 1 </array>
  </variables>
  <constraints>
    <sum>
      <list> x[] </list>
      <coeffs> 10 11 11 7 4 3 25 15 10 12 11 8 3 15 7 7 2 13 12 25 12 18 11 21 4 14 8 10 22 19 </coeffs>
      <condition> (le,100) </condition>
    </sum>
  </constraints>
  <objectives>
    <maximize type="sum">
      <list> x[] </list>
      <coeffs> 39 36 23 69 93 18 62 35 54 88 58 90 33 75 71 43 29 36 25 15 40 22 58 90 30 39 8 47 31 11 </coeffs>
    </maximize>
  </objectives>
</instance>
